solution status: optimal solution found
objective value:                                    0
$_85_y                                             22 	(obj:0)
$_85_z                                             22 	(obj:0)
$_6__8_y                                           20 	(obj:0)
$_6__8_z                                           20 	(obj:0)
$_20_y                                             25 	(obj:0)
$_20_z                                             21 	(obj:0)
$_41_y                                             22 	(obj:0)
$_41_z                                             20 	(obj:0)
$_86_y                                             24 	(obj:0)
$_86_z                                             21 	(obj:0)
$_42_y                                             23 	(obj:0)
$_42_z                                             20 	(obj:0)
$_19_y                                             23 	(obj:0)
$_19_z                                             21 	(obj:0)
$_7_y                                              22 	(obj:0)
$_7_z                                              21 	(obj:0)
$_108_y                                            22 	(obj:0)
$_108_z                                            23 	(obj:0)
